p cnf 23 13
-6 9 1 15 -2 0
-14 2 3 -7 -18 0
21 10 7 -18 16 0
11 5 -19 7 -3 0
-5 6 -15 2 -20 0
8 1 9 6 -2 0
-13 -11 18 -6 16 0
-3 11 -13 -8 12 0
-3 -9 -17 -10 -8 0
-7 10 3 16 -6 0
8 10 1 -14 16 0
-3 8 -2 18 -9 0
-2 -1 -3 -9 18 0
